NAME          BLANK   
ROWS
 N  OBJROW
 G  R0000000
 G  R0000001
 G  R0000002
 G  R0000003
 G  R0000004
 G  R0000005
 G  R0000006
 G  R0000007
 G  R0000008
 G  R0000009
COLUMNS
    C0000000  OBJROW     -15.          R0000001   -20.       
    C0000000  R0000002   -24.          R0000003   -5.        
    C0000000  R0000007   -18.          R0000008   -1.        
    C0000000  R0000009   -23.       
    C0000001  OBJROW    19.            R0000001   -4.        
    C0000001  R0000002   -2.           R0000003   -18.       
    C0000001  R0000004   -42.          R0000005   -40.       
    C0000001  R0000008   -26.       
    C0000002  OBJROW     -49.          R0000000   -6.        
    C0000002  R0000001   -43.          R0000002   -14.       
    C0000002  R0000003   -3.           R0000004   -14.       
    C0000002  R0000005   -50.          R0000006   -43.       
    C0000002  R0000007   -21.          R0000008   -30.       
    C0000002  R0000009   -19.       
    C0000003  OBJROW     -10.          R0000000   -31.       
    C0000003  R0000001   -18.          R0000002   -40.       
    C0000003  R0000003   -18.          R0000004   -2.        
    C0000003  R0000005   -5.        
    C0000004  OBJROW    38.            R0000000   -15.       
    C0000004  R0000001   -16.          R0000003   -18.       
    C0000004  R0000005   -7.           R0000007   -27.       
    C0000005  OBJROW    30.            R0000001   -43.       
    C0000005  R0000003   -3.           R0000005   -37.       
    C0000005  R0000006   -4.           R0000007   -18.       
    C0000006  OBJROW     -45.          R0000002   -36.       
    C0000006  R0000003   -28.          R0000005   -18.       
    C0000006  R0000006   -40.          R0000008   -46.       
    C0000007  OBJROW     -8.           R0000000   -6.        
    C0000007  R0000002   -45.          R0000004   -50.       
    C0000007  R0000006   -45.          R0000007   -32.       
    C0000007  R0000008   -35.          R0000009   -36.       
    C0000008  OBJROW    10.            R0000000   -18.       
    C0000008  R0000001   -23.          R0000002   -2.        
    C0000008  R0000003   -43.          R0000008   -36.       
    C0000009  OBJROW     -29.          R0000000   -27.       
    C0000009  R0000001   -28.          R0000002   -24.       
    C0000009  R0000003   -26.          R0000005   -33.       
    C0000009  R0000006   -39.          R0000007   -25.       
    C0000009  R0000008   -40.          R0000009   -40.       
RHS
    RHS       R0000000   -122.         R0000001   -188.      
    RHS       R0000002   -406.         R0000003   -273.      
    RHS       R0000004   -132.         R0000005   -200.      
    RHS       R0000006   -376.         R0000007   -124.      
    RHS       R0000008   -433.         R0000009   -133.      
BOUNDS
 UI BOUND     C0000000  1500.       
 UI BOUND     C0000001  1500.       
 UI BOUND     C0000002  1500.       
 UI BOUND     C0000003  1500.       
 UI BOUND     C0000004  1500.       
 UI BOUND     C0000005  1500.       
 UI BOUND     C0000006  1500.       
 UI BOUND     C0000007  1500.       
 UI BOUND     C0000008  1500.       
 UI BOUND     C0000009  1500.       
ENDATA
